c turning on binary mode checking
c parsing input formula with 202048 variables and 780975 clauses
c finished parsing, read 2635188 bytes from proof file
c detected empty clause; start verification via backward checking
c 7509 of 780975 clauses in core                            
c 2526 of 97068 lemmas in core using 102570 resolution steps
c 0 RAT lemmas in core; 534 redundant literals in core lemmas
s VERIFIED
c verification time: 1.247 seconds
